
Gurobi 10.0.1 (linux64) logging started Sun Nov 26 16:13:25 2023

Set parameter LogFile to value "ArtificialInstance/ExperimentV2/S4T3K2/BaSp/gurobi91.txt"
Gurobi Optimizer version 10.0.1 build v10.0.1rc0 (linux64)

CPU model: AMD EPYC 7H12 64-Core Processor, instruction set [SSE2|AVX|AVX2]
Thread count: 128 physical cores, 128 logical processors, using up to 32 threads

Academic license 656792 - for non-commercial use only - registered to b.___@student.vu.nl
Optimize a model with 2420 rows, 3600 columns and 11840 nonzeros
Model fingerprint: 0xbfc059d4
Variable types: 0 continuous, 3600 integer (3600 binary)
Coefficient statistics:
  Matrix range     [1e+00, 1e+00]
  Objective range  [9e-01, 2e+01]
  Bounds range     [1e+00, 1e+00]
  RHS range        [1e+00, 1e+00]
Found heuristic solution: objective 641.0328958
Presolve time: 0.02s
Presolved: 2420 rows, 3600 columns, 11840 nonzeros
Variable types: 0 continuous, 3600 integer (3600 binary)

Root relaxation: objective 4.470910e+01, 2085 iterations, 0.05 seconds (0.04 work units)

    Nodes    |    Current Node    |     Objective Bounds      |     Work
 Expl Unexpl |  Obj  Depth IntInf | Incumbent    BestBd   Gap | It/Node Time

     0     0   44.70910    0  450  641.03290   44.70910  93.0%     -    0s
H    0     0                     180.9505072   44.70910  75.3%     -    0s
H    0     0                     169.7935844   44.70910  73.7%     -    0s
H    0     0                      78.3721386   44.70910  43.0%     -    0s
     0     0   49.50006    0  539   78.37214   49.50006  36.8%     -    0s
H    0     0                      73.0664883   49.50006  32.3%     -    0s
H    0     0                      72.1215398   51.63659  28.4%     -    0s
     0     0   51.95545    0  602   72.12154   51.95545  28.0%     -    0s
H    0     0                      69.8430380   51.95545  25.6%     -    0s
     0     0   54.44837    0  781   69.84304   54.44837  22.0%     -    0s
H    0     0                      64.3011603   54.44837  15.3%     -    0s
     0     0   54.45936    0  778   64.30116   54.45936  15.3%     -    0s
     0     0   54.45963    0  777   64.30116   54.45963  15.3%     -    0s
     0     0   56.71289    0  684   64.30116   56.71289  11.8%     -    0s
     0     0   56.84662    0  651   64.30116   56.84662  11.6%     -    0s
     0     0   56.87815    0  742   64.30116   56.87815  11.5%     -    0s
     0     0   56.88209    0  764   64.30116   56.88209  11.5%     -    0s
     0     0   56.88209    0  764   64.30116   56.88209  11.5%     -    1s
     0     0   57.60447    0  719   64.30116   57.60447  10.4%     -    1s
     0     0   57.73715    0  747   64.30116   57.73715  10.2%     -    1s
     0     0   57.76072    0  750   64.30116   57.76072  10.2%     -    1s
     0     0   57.76072    0  752   64.30116   57.76072  10.2%     -    1s
     0     0   58.58281    0  795   64.30116   58.58281  8.89%     -    1s
     0     0   58.68092    0  803   64.30116   58.68092  8.74%     -    1s
     0     0   58.70149    0  802   64.30116   58.70149  8.71%     -    1s
     0     0   58.70166    0  805   64.30116   58.70166  8.71%     -    1s
     0     0   58.85538    0  819   64.30116   58.85538  8.47%     -    1s
     0     0   58.86226    0  832   64.30116   58.86226  8.46%     -    1s
     0     0   58.87655    0  818   64.30116   58.87655  8.44%     -    1s
     0     0   58.87655    0  818   64.30116   58.87655  8.44%     -    1s
     0     0   58.87819    0  824   64.30116   58.87819  8.43%     -    1s
     0     0   58.88632    0  830   64.30116   58.88632  8.42%     -    1s
     0     0   58.88632    0  832   64.30116   58.88632  8.42%     -    1s
     0     0   59.28239    0  843   64.30116   59.28239  7.81%     -    1s
     0     0   59.31020    0  847   64.30116   59.31020  7.76%     -    1s
     0     0   59.31043    0  874   64.30116   59.31043  7.76%     -    1s
H    0     0                      63.8914047   59.31043  7.17%     -    2s
H    0     0                      63.7993880   59.31043  7.04%     -    2s
     0     0   59.31084    0  881   63.79939   59.31084  7.04%     -    2s
     0     0   59.31084    0  774   63.79939   59.31084  7.04%     -    2s
     0     2   59.31084    0  774   63.79939   59.31084  7.04%     -    2s
H   44    16                      63.1242029   60.98187  3.39%   291    3s

Cutting planes:
  Gomory: 6
  Zero half: 119
  RLT: 50

Explored 105 nodes (31839 simplex iterations) in 3.92 seconds (2.72 work units)
Thread count was 32 (of 128 available processors)

Solution count 10: 63.1242 63.7994 63.8914 ... 180.951

Optimal solution found (tolerance 1.00e-04)
Best objective 6.312420293271e+01, best bound 6.312420293271e+01, gap 0.0000%
